nNurses = 116;
nHours = 27;
minHours = 7;
maxHours = 11;
maxConsec = 9;
maxPresence = 11;
demand = [35, 34, 31, 27, 23, 19, 15, 10, 13, 16, 16, 18, 16, 17, 13, 11, 14, 13, 10, 6, 7, 9, 5, 6, 9, 13, 8];
